s = 20+1;
n = 4;
swap = 1;
% 20 instructions
% 5 registers
% https://github.com/google-deepmind/alphadev/blob/main/sort_functions_test.cc
perm_count = 24;
init_perm = 
 [| 4, 3, 2, 1, 
  | 3, 4, 2, 1, 
  | 3, 2, 4, 1, 
  | 3, 2, 1, 4, 
  | 4, 2, 3, 1, 
  | 2, 4, 3, 1, 
  | 2, 3, 4, 1, 
  | 2, 3, 1, 4, 
  | 4, 2, 1, 3, 
  | 2, 4, 1, 3, 
  | 2, 1, 4, 3, 
  | 2, 1, 3, 4, 
  | 4, 3, 1, 2, 
  | 3, 4, 1, 2, 
  | 3, 1, 4, 2, 
  | 3, 1, 2, 4, 
  | 4, 1, 3, 2, 
  | 1, 4, 3, 2, 
  | 1, 3, 4, 2, 
  | 1, 3, 2, 4, 
  | 4, 1, 2, 3, 
  | 1, 4, 2, 3, 
  | 1, 2, 4, 3, 
  | 1, 2, 3, 4, |];